\ This file has been generated by DOcplex
\ ENCODING=ISO-8859-1
\Problem name: random_problem.lp

Minimize
 obj: 7 x0 - 4 x1 - 5 x2 - 9 x4 + 8 x5 - 9 x6 + 2 x7 - x8 - 2 x9 + 10 x10
      + 4 x11 + 3 x12 + 3 x13 - 6 x14 - 4 x15 + 6 x16 + 5 x17 + 10 x18 - 2 x19
      - 10 x20 + 6 x21 - 3 x22 + 4 x23 + 9 x24 + 5 x25 + 10 x26 + 2 x27 + 6 x28
      + 3 x29 + 4 x30 + 4 x31 + 4 x32 + 5 x33 - x34 + 3 x35 - 8 x36 - 2 x37
      + 9 x38 + 9 x40 + 8 x41 + 4 x42 + 2 x43 - 8 x44 - 8 x45 + 4 x46 + 7 x47
      - x48 + 4 x49 + [ - 14 x0*x2 - 10 x0*x10 - 10 x0*x14 + 12 x0*x17
      + 14 x0*x18 - 10 x0*x22 - 12 x0*x24 - 14 x0*x38 - 6 x0*x43 + 2 x0*x46
      + 6 x1*x5 + 14 x1*x7 - 10 x1*x17 - 14 x1*x24 - 18 x1*x26 + 4 x1*x32
      - 8 x1*x33 - 12 x1*x36 + 4 x1*x41 + 6 x1*x48 - 20 x2*x16 - 20 x2*x23
      - 10 x2*x24 - 8 x2*x27 + 14 x2*x29 - 4 x2*x31 + 2 x2*x33 + 4 x2*x36
      + 20 x2*x45 + 2 x3*x6 - 4 x3*x12 - 18 x3*x28 + 10 x3*x31 + 20 x3*x34
      + 20 x3*x35 - 4 x3*x37 - 18 x3*x43 + 8 x3*x46 + 16 x3*x48 - 18 x4*x13
      + 2 x4*x25 + 14 x4*x27 - 16 x4*x28 - 16 x4*x29 + 6 x4*x37 - 4 x4*x39
      - 2 x4*x40 + 18 x4*x48 + 4 x4*x49 - 4 x5*x12 + 16 x5*x14 + 2 x5*x24
      + 10 x5*x34 + 12 x5*x35 - 20 x5*x38 - 12 x5*x42 + 20 x5*x43 - 20 x5*x45
      + 6 x6*x19 + 6 x6*x20 - 16 x6*x22 + 10 x6*x27 - 4 x6*x35 + 16 x6*x36
      - 6 x6*x42 + 16 x6*x43 + 2 x6*x46 + 14 x7*x10 - 4 x7*x12 - 2 x7*x14
      - 20 x7*x20 + 2 x7*x22 - 18 x7*x26 - 4 x7*x30 + 4 x7*x42 - 6 x7*x48
      + 18 x8*x9 + 2 x8*x11 + 12 x8*x12 - 14 x8*x20 + 2 x8*x21 - 16 x8*x26
      - 14 x8*x28 - 12 x8*x34 + 16 x8*x37 + 6 x8*x47 - 16 x9*x15 - 20 x9*x26
      + 8 x9*x30 - 8 x9*x31 + 6 x9*x35 - 18 x9*x38 - 14 x9*x42 - 2 x9*x43
      + 16 x9*x49 - 6 x10*x13 - 2 x10*x19 + 8 x10*x20 - 10 x10*x29 - 14 x10*x37
      - 16 x10*x42 + 2 x10*x43 + 2 x10*x47 + 6 x11*x18 - 6 x11*x19 + 14 x11*x24
      - 10 x11*x25 + 18 x11*x29 - 8 x11*x30 - 18 x11*x31 + 8 x11*x33 - 4 x11*x49
      + 4 x12*x18 + 8 x12*x28 + 2 x12*x33 + 14 x12*x44 + 4 x12*x45 + 8 x12*x49
      + 8 x13*x16 + 12 x13*x18 + 4 x13*x30 + 12 x13*x31 + 10 x13*x36
      + 18 x13*x37 - 20 x13*x41 + 14 x13*x45 - 6 x14*x16 + 4 x14*x21 + 2 x14*x23
      - 14 x14*x34 - 12 x14*x36 + 14 x14*x37 - 16 x14*x47 - 10 x15*x24
      + 20 x15*x25 - 12 x15*x27 - 14 x15*x30 - 2 x15*x36 + 10 x15*x37
      - 8 x15*x42 + 14 x15*x44 - 20 x15*x46 + 10 x16*x17 - 18 x16*x18
      + 18 x16*x26 - 12 x16*x39 - 20 x16*x40 + 20 x16*x42 + 10 x16*x48
      + 12 x17*x21 - 20 x17*x24 - 14 x17*x32 + 10 x17*x34 + 18 x17*x39
      + 14 x17*x40 + 2 x17*x46 + 18 x18*x28 - 4 x18*x39 - 8 x18*x41 + 4 x18*x42
      + 16 x18*x47 - 14 x19*x22 + 6 x19*x29 - 20 x19*x31 + 8 x19*x36 + 2 x19*x38
      - 4 x19*x40 - 16 x19*x44 - 12 x20*x22 - 14 x20*x23 + 14 x20*x27
      + 12 x20*x33 + 10 x20*x38 - 6 x20*x40 - 16 x21*x24 - 12 x21*x27
      + 2 x21*x30 + 12 x21*x38 + 16 x21*x39 + 6 x21*x41 + 4 x21*x43 - 4 x22*x25
      + 2 x22*x29 + 16 x22*x31 + 8 x22*x32 - 12 x22*x46 - 8 x23*x26 - 2 x23*x30
      + 14 x23*x32 + 10 x23*x40 - 18 x23*x41 + 20 x23*x46 - 4 x23*x47
      + 12 x24*x31 + 20 x24*x39 - 14 x25*x27 + 4 x25*x30 - 14 x25*x35
      + 12 x25*x44 + 10 x25*x45 - 14 x25*x47 - 14 x26*x32 - 10 x26*x42
      + 8 x26*x45 - 16 x26*x48 + 12 x27*x32 - 20 x27*x39 - 2 x27*x45
      - 14 x28*x34 - 18 x28*x40 - 6 x28*x45 - 12 x28*x46 - 16 x28*x47
      + 12 x29*x34 - 14 x29*x35 - 10 x29*x37 - 12 x29*x41 + 4 x30*x44
      - 10 x30*x45 - 20 x31*x43 + 6 x31*x47 - 2 x32*x33 - 10 x32*x34
      + 18 x32*x39 + 14 x32*x44 - 4 x33*x34 + 4 x33*x35 - 4 x33*x40 + 6 x33*x49
      + 12 x34*x42 - 10 x35*x41 - 14 x35*x48 + 6 x35*x49 - 16 x36*x38
      - 18 x36*x45 + 2 x36*x48 + 2 x37*x38 - 14 x37*x48 - 10 x38*x39 + 2 x38*x49
      - 12 x39*x43 - 10 x40*x46 - 18 x40*x48 + 10 x41*x43 - 4 x41*x44
      - 6 x41*x49 - 10 x44*x46 - 10 x44*x47 - 12 x44*x49 + 14 x47*x49 ]/2
Subject To
 c0: - 2 x0 + 2 x9 + 2 x13 + x15 + x16 - 2 x29 - 2 x30 + 2 x34 - x37 - x49 = 1
 c1: - x11 - 2 x12 + 2 x13 - x14 + 2 x35 + x37 - 2 x39 + x41 - x42 - 2 x45 = 0
 c2: 2 x0 - x2 + 2 x6 + 2 x7 + x8 + 2 x19 + 2 x21 + x25 - 2 x38 - x48 = 0
 c3: - x6 - x10 - 2 x13 + x18 + 2 x22 + 2 x25 - 2 x26 - x31 + 2 x42 - x47 = 1
 c4: - x2 + x10 - x19 - 2 x21 + 2 x26 - 2 x27 + x36 - 2 x42 - x46 + x48 = -2
 c5: 2 x2 + 2 x8 - 2 x12 + x13 - x19 + 2 x32 + 2 x33 - x38 + x43 + x48 = 1
 c6: x2 + 2 x8 + x9 - x10 - 2 x13 + x15 + 2 x16 + 2 x25 + x29 - 2 x42 = -1
 c7: x2 + x8 - 2 x11 + 2 x12 + 2 x15 - 2 x26 + x33 - x34 + x44 + x49 = 1
 c8: x1 + 2 x3 + 2 x8 - x18 + 2 x19 - x20 - x37 + x46 - x48 - x49 = -1
 c9: - x2 - x5 - 2 x7 - 2 x10 - 2 x18 + 2 x33 - 2 x36 + x39 + 2 x40 - x47 = 0

Bounds
 0 <= x0 <= 1
 0 <= x1 <= 1
 0 <= x2 <= 1
 0 <= x3 <= 1
 0 <= x4 <= 1
 0 <= x5 <= 1
 0 <= x6 <= 1
 0 <= x7 <= 1
 0 <= x8 <= 1
 0 <= x9 <= 1
 0 <= x10 <= 1
 0 <= x11 <= 1
 0 <= x12 <= 1
 0 <= x13 <= 1
 0 <= x14 <= 1
 0 <= x15 <= 1
 0 <= x16 <= 1
 0 <= x17 <= 1
 0 <= x18 <= 1
 0 <= x19 <= 1
 0 <= x20 <= 1
 0 <= x21 <= 1
 0 <= x22 <= 1
 0 <= x23 <= 1
 0 <= x24 <= 1
 0 <= x25 <= 1
 0 <= x26 <= 1
 0 <= x27 <= 1
 0 <= x28 <= 1
 0 <= x29 <= 1
 0 <= x30 <= 1
 0 <= x31 <= 1
 0 <= x32 <= 1
 0 <= x33 <= 1
 0 <= x34 <= 1
 0 <= x35 <= 1
 0 <= x36 <= 1
 0 <= x37 <= 1
 0 <= x38 <= 1
 0 <= x39 <= 1
 0 <= x40 <= 1
 0 <= x41 <= 1
 0 <= x42 <= 1
 0 <= x43 <= 1
 0 <= x44 <= 1
 0 <= x45 <= 1
 0 <= x46 <= 1
 0 <= x47 <= 1
 0 <= x48 <= 1
 0 <= x49 <= 1

Binaries
 x0 x1 x2 x3 x4 x5 x6 x7 x8 x9 x10 x11 x12 x13 x14 x15 x16 x17 x18 x19 x20 x21
 x22 x23 x24 x25 x26 x27 x28 x29 x30 x31 x32 x33 x34 x35 x36 x37 x38 x39 x40 x41
 x42 x43 x44 x45 x46 x47 x48 x49
End
